<?xml version = "1.0" encoding="UTF-8" standalone="yes"?>
<CPLEXSolution version="1.2">
 <header
   problemName="IloCplex"
   solutionName="p0"
   solutionIndex="-1"
   objectiveValue="7370742"
   solutionTypeValue="3"
   solutionTypeString="primal"
   solutionStatusValue="127"
   solutionStatusString="integer feasible solution"
   solutionMethodString="mip"
   primalFeasible="0"
   dualFeasible="0"
   writeLevel="3"/>
 <quality
   epInt="1.0000000000000001e-05"
   epRHS="9.9999999999999995e-07"
   maxIntInfeas="0"
   maxPrimalInfeas="0"
   maxX="1"
   maxSlack="1"/>
 <variables>
  <variable name="w0_1" index="1" value="1"/>
  <variable name="w0_2" index="2" value="1"/>
  <variable name="w0_4" index="4" value="1"/>
  <variable name="w0_5" index="5" value="1"/>
  <variable name="w0_6" index="6" value="1"/>
  <variable name="w0_7" index="7" value="1"/>
  <variable name="w0_8" index="8" value="1"/>
  <variable name="w0_9" index="9" value="1"/>
  <variable name="w0_10" index="10" value="1"/>
  <variable name="w0_11" index="11" value="1"/>
  <variable name="w0_12" index="12" value="1"/>
  <variable name="w1_1" index="15" value="1"/>
  <variable name="w1_2" index="16" value="1"/>
  <variable name="w1_4" index="18" value="1"/>
  <variable name="w1_5" index="19" value="1"/>
  <variable name="w1_6" index="20" value="1"/>
  <variable name="w1_7" index="21" value="1"/>
  <variable name="w1_8" index="22" value="1"/>
  <variable name="w1_9" index="23" value="1"/>
  <variable name="w1_10" index="24" value="1"/>
  <variable name="w1_11" index="25" value="1"/>
  <variable name="w1_12" index="26" value="1"/>
  <variable name="w2_1" index="29" value="1"/>
  <variable name="w2_2" index="30" value="1"/>
  <variable name="w2_4" index="32" value="1"/>
  <variable name="w2_5" index="33" value="1"/>
  <variable name="w2_6" index="34" value="1"/>
  <variable name="w2_7" index="35" value="1"/>
  <variable name="w2_8" index="36" value="1"/>
  <variable name="w2_9" index="37" value="1"/>
  <variable name="w2_10" index="38" value="1"/>
  <variable name="w2_11" index="39" value="1"/>
  <variable name="w2_12" index="40" value="1"/>
  <variable name="w3_1" index="43" value="1"/>
  <variable name="w3_2" index="44" value="1"/>
  <variable name="w3_4" index="46" value="1"/>
  <variable name="w3_5" index="47" value="1"/>
  <variable name="w3_6" index="48" value="1"/>
  <variable name="w3_7" index="49" value="1"/>
  <variable name="w3_8" index="50" value="1"/>
  <variable name="w3_9" index="51" value="1"/>
  <variable name="w3_10" index="52" value="1"/>
  <variable name="w3_11" index="53" value="1"/>
  <variable name="w3_12" index="54" value="1"/>
  <variable name="w4_1" index="57" value="1"/>
  <variable name="w4_2" index="58" value="1"/>
  <variable name="w4_4" index="60" value="1"/>
  <variable name="w4_5" index="61" value="1"/>
  <variable name="w4_6" index="62" value="1"/>
  <variable name="w4_7" index="63" value="1"/>
  <variable name="w4_8" index="64" value="1"/>
  <variable name="w4_9" index="65" value="1"/>
  <variable name="w4_10" index="66" value="1"/>
  <variable name="w4_11" index="67" value="1"/>
  <variable name="w4_12" index="68" value="1"/>
  <variable name="w6_1" index="85" value="1"/>
  <variable name="w6_2" index="86" value="1"/>
  <variable name="w6_4" index="88" value="1"/>
  <variable name="w6_5" index="89" value="1"/>
  <variable name="w6_6" index="90" value="1"/>
  <variable name="w6_7" index="91" value="1"/>
  <variable name="w6_8" index="92" value="1"/>
  <variable name="w6_9" index="93" value="1"/>
  <variable name="w6_10" index="94" value="1"/>
  <variable name="w6_11" index="95" value="1"/>
  <variable name="w6_12" index="96" value="1"/>
  <variable name="k0" index="196" value="1"/>
  <variable name="k1" index="197" value="1"/>
  <variable name="k2" index="198" value="1"/>
  <variable name="k3" index="199" value="1"/>
  <variable name="k4" index="200" value="1"/>
  <variable name="k6" index="202" value="1"/>
  <variable name="u1" index="211" value="1"/>
  <variable name="u2" index="212" value="1"/>
  <variable name="u4" index="214" value="1"/>
  <variable name="u5" index="215" value="1"/>
  <variable name="u6" index="216" value="1"/>
  <variable name="u7" index="217" value="1"/>
  <variable name="u8" index="218" value="1"/>
  <variable name="u9" index="219" value="1"/>
  <variable name="u10" index="220" value="1"/>
  <variable name="u11" index="221" value="1"/>
  <variable name="u12" index="222" value="1"/>
  <variable name="x0_30" index="254" value="1"/>
  <variable name="x1_69" index="493" value="1"/>
  <variable name="x2_11" index="635" value="1"/>
  <variable name="x3_40" index="864" value="1"/>
  <variable name="x4_62" index="1086" value="1"/>
  <variable name="x5_77" index="1301" value="1"/>
  <variable name="x6_35" index="1459" value="1"/>
  <variable name="x7_46" index="1670" value="1"/>
  <variable name="x8_127" index="1951" value="1"/>
  <variable name="x9_179" index="2203" value="1"/>
  <variable name="x10_23" index="2247" value="1"/>
  <variable name="x11_144" index="2568" value="1"/>
  <variable name="x12_161" index="2785" value="1"/>
  <variable name="x13_172" index="2996" value="1"/>
  <variable name="x14_177" index="3201" value="1"/>
  <variable name="x15_78" index="3302" value="1"/>
  <variable name="x16_61" index="3485" value="1"/>
  <variable name="x17_167" index="3791" value="1"/>
  <variable name="x18_191" index="4015" value="1"/>
  <variable name="x19_57" index="4081" value="1"/>
  <variable name="x20_83" index="4307" value="1"/>
  <variable name="x21_186" index="4610" value="1"/>
  <variable name="x22_39" index="4663" value="1"/>
  <variable name="x23_188" index="5012" value="1"/>
  <variable name="x24_163" index="5187" value="1"/>
  <variable name="x25_32" index="5256" value="1"/>
  <variable name="x26_81" index="5505" value="1"/>
  <variable name="x27_115" index="5739" value="1"/>
  <variable name="x28_195" index="6019" value="1"/>
  <variable name="x29_116" index="6140" value="1"/>
  <variable name="x30_3" index="6227" value="1"/>
  <variable name="x31_1" index="6425" value="1"/>
  <variable name="x32_131" index="6755" value="1"/>
  <variable name="x33_124" index="6948" value="1"/>
  <variable name="x34_143" index="7167" value="1"/>
  <variable name="x35_151" index="7375" value="1"/>
  <variable name="x36_150" index="7574" value="1"/>
  <variable name="x37_183" index="7807" value="1"/>
  <variable name="x38_60" index="7884" value="1"/>
  <variable name="x39_90" index="8114" value="1"/>
  <variable name="x40_38" index="8262" value="1"/>
  <variable name="x41_45" index="8469" value="1"/>
  <variable name="x42_111" index="8735" value="1"/>
  <variable name="x43_26" index="8850" value="1"/>
  <variable name="x44_199" index="9223" value="1"/>
  <variable name="x45_125" index="9349" value="1"/>
  <variable name="x46_99" index="9523" value="1"/>
  <variable name="x47_4" index="9628" value="1"/>
  <variable name="x48_0" index="9824" value="1"/>
  <variable name="x49_118" index="10142" value="1"/>
  <variable name="x50_21" index="10245" value="1"/>
  <variable name="x51_180" index="10604" value="1"/>
  <variable name="x52_173" index="10797" value="1"/>
  <variable name="x53_192" index="11016" value="1"/>
  <variable name="x54_49" index="11073" value="1"/>
  <variable name="x55_108" index="11332" value="1"/>
  <variable name="x56_7" index="11431" value="1"/>
  <variable name="x57_65" index="11689" value="1"/>
  <variable name="x58_134" index="11958" value="1"/>
  <variable name="x59_19" index="12043" value="1"/>
  <variable name="x60_145" index="12369" value="1"/>
  <variable name="x61_128" index="12552" value="1"/>
  <variable name="x62_56" index="12680" value="1"/>
  <variable name="x63_158" index="12982" value="1"/>
  <variable name="x64_162" index="13186" value="1"/>
  <variable name="x65_141" index="13365" value="1"/>
  <variable name="x66_53" index="13477" value="1"/>
  <variable name="x67_160" index="13784" value="1"/>
  <variable name="x68_18" index="13842" value="1"/>
  <variable name="x69_54" index="14078" value="1"/>
  <variable name="x70_166" index="14390" value="1"/>
  <variable name="x71_12" index="14436" value="1"/>
  <variable name="x72_126" index="14750" value="1"/>
  <variable name="x73_153" index="14977" value="1"/>
  <variable name="x74_193" index="15217" value="1"/>
  <variable name="x75_87" index="15311" value="1"/>
  <variable name="x76_29" index="15453" value="1"/>
  <variable name="x77_184" index="15808" value="1"/>
  <variable name="x78_31" index="15855" value="1"/>
  <variable name="x79_76" index="16100" value="1"/>
  <variable name="x80_156" index="16380" value="1"/>
  <variable name="x81_73" index="16497" value="1"/>
  <variable name="x82_42" index="16666" value="1"/>
  <variable name="x83_24" index="16848" value="1"/>
  <variable name="x84_138" index="17162" value="1"/>
  <variable name="x85_164" index="17388" value="1"/>
  <variable name="x86_182" index="17606" value="1"/>
  <variable name="x87_175" index="17799" value="1"/>
  <variable name="x88_50" index="17874" value="1"/>
  <variable name="x89_89" index="18113" value="1"/>
  <variable name="x90_110" index="18334" value="1"/>
  <variable name="x91_58" index="18482" value="1"/>
  <variable name="x92_119" index="18743" value="1"/>
  <variable name="x93_68" index="18892" value="1"/>
  <variable name="x94_88" index="19112" value="1"/>
  <variable name="x95_137" index="19361" value="1"/>
  <variable name="x96_67" index="19491" value="1"/>
  <variable name="x97_6" index="19630" value="1"/>
  <variable name="x98_59" index="19883" value="1"/>
  <variable name="x99_74" index="20098" value="1"/>
  <variable name="x100_10" index="20234" value="1"/>
  <variable name="x101_168" index="20592" value="1"/>
  <variable name="x102_178" index="20802" value="1"/>
  <variable name="x103_22" index="20846" value="1"/>
  <variable name="x104_94" index="21118" value="1"/>
  <variable name="x105_33" index="21257" value="1"/>
  <variable name="x106_51" index="21475" value="1"/>
  <variable name="x107_36" index="21660" value="1"/>
  <variable name="x108_79" index="21903" value="1"/>
  <variable name="x109_169" index="22193" value="1"/>
  <variable name="x110_80" index="22304" value="1"/>
  <variable name="x111_63" index="22487" value="1"/>
  <variable name="x112_190" index="22814" value="1"/>
  <variable name="x113_98" index="22922" value="1"/>
  <variable name="x114_17" index="23041" value="1"/>
  <variable name="x115_132" index="23356" value="1"/>
  <variable name="x116_13" index="23437" value="1"/>
  <variable name="x117_170" index="23794" value="1"/>
  <variable name="x118_55" index="23879" value="1"/>
  <variable name="x119_5" index="24029" value="1"/>
  <variable name="x120_84" index="24308" value="1"/>
  <variable name="x121_159" index="24583" value="1"/>
  <variable name="x122_44" index="24668" value="1"/>
  <variable name="x123_112" index="24936" value="1"/>
  <variable name="x124_16" index="25040" value="1"/>
  <variable name="x125_174" index="25398" value="1"/>
  <variable name="x126_27" index="25451" value="1"/>
  <variable name="x127_140" index="25764" value="1"/>
  <variable name="x128_25" index="25849" value="1"/>
  <variable name="x129_142" index="26166" value="1"/>
  <variable name="x130_194" index="26418" value="1"/>
  <variable name="x131_43" index="26467" value="1"/>
  <variable name="x132_196" index="26820" value="1"/>
  <variable name="x133_176" index="27000" value="1"/>
  <variable name="x134_152" index="27176" value="1"/>
  <variable name="x135_148" index="27372" value="1"/>
  <variable name="x136_105" index="27529" value="1"/>
  <variable name="x137_48" index="27672" value="1"/>
  <variable name="x138_93" index="27917" value="1"/>
  <variable name="x139_75" index="28099" value="1"/>
  <variable name="x140_107" index="28331" value="1"/>
  <variable name="x141_9" index="28433" value="1"/>
  <variable name="x142_2" index="28626" value="1"/>
  <variable name="x143_91" index="28915" value="1"/>
  <variable name="x144_185" index="29209" value="1"/>
  <variable name="x145_123" index="29347" value="1"/>
  <variable name="x146_104" index="29528" value="1"/>
  <variable name="x147_100" index="29724" value="1"/>
  <variable name="x148_146" index="29970" value="1"/>
  <variable name="x149_71" index="30095" value="1"/>
  <variable name="x150_171" index="30395" value="1"/>
  <variable name="x151_52" index="30476" value="1"/>
  <variable name="x152_189" index="30813" value="1"/>
  <variable name="x153_187" index="31011" value="1"/>
  <variable name="x154_28" index="31052" value="1"/>
  <variable name="x155_14" index="31238" value="1"/>
  <variable name="x156_101" index="31525" value="1"/>
  <variable name="x157_114" index="31738" value="1"/>
  <variable name="x158_66" index="31890" value="1"/>
  <variable name="x159_92" index="32116" value="1"/>
  <variable name="x160_135" index="32359" value="1"/>
  <variable name="x161_8" index="32432" value="1"/>
  <variable name="x162_15" index="32639" value="1"/>
  <variable name="x163_102" index="32926" value="1"/>
  <variable name="x164_133" index="33157" value="1"/>
  <variable name="x165_97" index="33321" value="1"/>
  <variable name="x166_147" index="33571" value="1"/>
  <variable name="x167_117" index="33741" value="1"/>
  <variable name="x168_121" index="33945" value="1"/>
  <variable name="x169_20" index="34044" value="1"/>
  <variable name="x170_113" index="34337" value="1"/>
  <variable name="x171_85" index="34509" value="1"/>
  <variable name="x172_157" index="34781" value="1"/>
  <variable name="x173_165" index="34989" value="1"/>
  <variable name="x174_82" index="35106" value="1"/>
  <variable name="x175_136" index="35360" value="1"/>
  <variable name="x176_181" index="35605" value="1"/>
  <variable name="x177_72" index="35696" value="1"/>
  <variable name="x178_41" index="35865" value="1"/>
  <variable name="x179_96" index="36120" value="1"/>
  <variable name="x180_120" index="36344" value="1"/>
  <variable name="x181_37" index="36461" value="1"/>
  <variable name="x182_34" index="36658" value="1"/>
  <variable name="x183_95" index="36919" value="1"/>
  <variable name="x184_109" index="37133" value="1"/>
  <variable name="x185_155" index="37379" value="1"/>
  <variable name="x186_70" index="37494" value="1"/>
  <variable name="x187_122" index="37746" value="1"/>
  <variable name="x188_103" index="37927" value="1"/>
  <variable name="x189_47" index="38071" value="1"/>
  <variable name="x190_197" index="38421" value="1"/>
  <variable name="x191_198" index="38622" value="1"/>
  <variable name="x192_139" index="38763" value="1"/>
  <variable name="x193_106" index="38930" value="1"/>
  <variable name="x194_86" index="39110" value="1"/>
  <variable name="x195_129" index="39353" value="1"/>
  <variable name="x196_130" index="39554" value="1"/>
  <variable name="x197_149" index="39773" value="1"/>
  <variable name="x198_154" index="39978" value="1"/>
  <variable name="x199_64" index="40088" value="1"/>
 </variables>
</CPLEXSolution>
